; benchmark generated from python API
(set-info :status unknown)
(declare-fun S_0 () Real)
(declare-fun S_1 () Real)
(declare-fun C () Real)
(declare-fun A_0 () Real)
(declare-fun L_0 () Real)
(declare-fun S_2 () Real)
(declare-fun S_5 () Real)
(declare-fun L0 () Real)
(declare-fun B () Real)
(declare-fun A_2 () Real)
(declare-fun A_1 () Real)
(declare-fun A_3 () Real)
(declare-fun A_4 () Real)
(declare-fun L_3 () Real)
(declare-fun L_1 () Real)
(declare-fun S_4 () Real)
(declare-fun L_2 () Real)
(declare-fun S_3 () Real)
(declare-fun L_4 () Real)
(declare-fun A_5 () Real)
(assert
 (let (($x42 (>= L0 0.0)))
 (let (($x922 (>= C 5.0)))
 (let (($x833 (>= B 5.0)))
 (let (($x22910 (<= 0.0 (+ C L_0 (* (- 1.0) A_1) S_0))))
 (let (($x24347 (not $x22910)))
 (let (($x22684 (<= (+ A_4 (* (- 1.0) A_3) (* (- 1.0) C)) 0.0)))
 (let (($x23135 (not $x22684)))
 (let (($x22566 (<= (+ A_2 (* (- 1.0) A_1) (* (- 1.0) C)) 0.0)))
 (let (($x22701 (not $x22566)))
 (let (($x3935 (>= S_5 (+ A_4 (* (- 1.0) L_3)))))
 (let (($x45785 (or $x3935 $x22701 $x23135 $x24347 (>= S_5 (+ A_2 (* (- 1.0) L_0) (* 2.0 C))))))
 (let (($x25301 (<= (+ (* (- 1.0) L_0) (* 3.0 C) (* (- 1.0) S_5) A_1) 0.0)))
 (let (($x24926 (<= (+ (* 4.0 C) (* (- 1.0) S_5) S_0) 0.0)))
 (let ((?x1318 (* 2.0 C)))
 (let ((?x377 (* (- 1.0) L_1)))
 (let ((?x23017 (+ A_2 ?x377 ?x1318)))
 (let (($x23739 (>= S_5 ?x23017)))
 (let (($x4511 (not (<= L_3 L_0))))
 (let (($x28104 (or $x4511 $x22566 $x22684 $x24347 (>= S_5 (+ A_3 (* (- 1.0) L_0) C)) $x25301)))
 (let ((?x23068 (+ A_3 ?x377 C)))
 (let (($x23557 (>= S_5 ?x23068)))
 (let (($x1420 (not (= L_1 L_2))))
 (let (($x25237 (<= (+ (* 3.0 C) S_1 (* (- 1.0) S_5)) 0.0)))
 (let (($x23926 (<= (+ A_2 (* (- 1.0) L_0) L_3 (* (- 1.0) A_3) C) 0.0)))
 (let ((?x959 (* (- 2.0) C)))
 (let ((?x561 (* (- 1.0) L_3)))
 (let ((?x635 (* (- 1.0) B)))
 (let ((?x23277 (+ ?x635 ?x561 A_3 ?x959)))
 (let ((?x695 (* (- 1.0) L_0)))
 (let ((?x1049 (+ A_1 ?x695)))
 (let (($x23909 (<= ?x1049 ?x23277)))
 (let (($x4387 (= L_3 L_0)))
 (let ((?x1954 (* (- 3.0) C)))
 (let ((?x23180 (+ ?x635 ?x561 A_3 ?x1954)))
 (let (($x23260 (<= S_0 ?x23180)))
 (let ((?x328 (* (- 1.0) C)))
 (let ((?x23160 (+ ?x635 ?x561 A_3 ?x328)))
 (let ((?x1723 (+ A_2 ?x695)))
 (let (($x23161 (<= ?x1723 ?x23160)))
 (let (($x993 (not (<= L_1 L_0))))
 (let (($x79 (= L_3 L_2)))
 (let (($x29162 (or $x79 (not (<= L_2 L_0)) $x23161 (<= (+ A_1 ?x695 L_3 (* (- 1.0) A_3) ?x1318) 0.0))))
 (let ((?x571 (* (- 1.0) L_4)))
 (let ((?x22968 (+ ?x635 ?x571 A_4 ?x328)))
 (let (($x23338 (<= (+ A_3 ?x695) ?x22968)))
 (let ((?x524 (+ ?x635 ?x571 A_4 ?x959)))
 (let (($x23038 (<= ?x1723 ?x524)))
 (let (($x89 (= L_4 L_3)))
 (let (($x27370 (or $x89 (<= (+ A_1 ?x695 L_4 (* (- 1.0) A_4) (* 3.0 C)) 0.0) $x993 $x1420 $x23038 $x23338)))
 (let ((?x594 (* (- 1.0) A_2)))
 (let ((?x2373 (+ A_1 ?x594 C)))
 (let (($x4014 (<= ?x2373 0.0)))
 (let (($x27964 (or $x89 $x4014 $x4511 $x23038 $x23338 (not (<= (+ ?x959 A_2 ?x695 (* (- 1.0) S_0)) 0.0)))))
 (let (($x23079 (<= (+ ?x959 A_2 ?x695 (* (- 1.0) S_0)) 0.0)))
 (let ((?x1985 (* (- 4.0) C)))
 (let ((?x21968 (+ ?x635 ?x571 A_4 ?x1985)))
 (let (($x22651 (<= S_0 ?x21968)))
 (let (($x43953 (or (>= S_3 ?x1723) (<= (+ C ?x695 (* (- 1.0) S_3) A_1) 0.0) $x24347)))
 (let ((?x1062 (+ A_2 ?x377)))
 (let (($x1432 (>= S_3 ?x1062)))
 (let (($x44225 (or (not (<= ?x1049 (+ ?x635 ?x571 A_4 ?x1954))) (= (+ ?x1954 ?x635 A_4 (* (- 1.0) A_1) ?x571 L_0) 0.0))))
 (let (($x5459 (= L_4 L_0)))
 (let (($x1816 (not (= L_0 L_2))))
 (let (($x27528 (or $x1816 $x5459 $x22566 (not (<= (+ A_3 (* (- 1.0) A_1) ?x959) 0.0)) $x23338 $x24347)))
 (let ((?x22141 (+ ?x635 ?x571 A_4 ?x1954)))
 (let (($x23252 (<= ?x1049 ?x22141)))
 (let (($x22822 (<= (+ A_3 (* (- 1.0) A_1) ?x959) 0.0)))
 (let (($x44156 (or $x89 $x993 $x1420 (<= (+ A_2 ?x695 L_4 (* (- 1.0) A_4) ?x1318) 0.0) $x23338)))
 (let ((?x358 (* (- 1.0) L_2)))
 (let ((?x22407 (+ A_2 ?x358 ?x635 C)))
 (let ((?x562 (+ A_3 ?x561)))
 (let (($x22826 (<= ?x562 ?x22407)))
 (let (($x22762 (or (= (+ ?x959 ?x561 A_3 ?x635 L_0 (* (- 1.0) A_1)) 0.0) (not $x23909))))
 (let (($x22793 (<= A_2 (+ A_1 ?x635 C))))
 (let (($x22803 (not $x22793)))
 (let ((?x502 (+ A_3 ?x594 ?x328)))
 (let (($x411 (<= ?x502 0.0)))
 (let (($x22547 (not $x411)))
 (let ((?x22329 (+ ?x635 ?x358 A_2 ?x328)))
 (let (($x23710 (<= ?x1049 ?x22329)))
 (let (($x69 (= L_2 L_1)))
 (let (($x30904 (or (= (+ ?x328 A_2 ?x358 ?x635 L_0 (* (- 1.0) A_1)) 0.0) (not $x23710))))
 (let (($x45794 (or $x1420 $x3935 $x22793 (>= S_5 (+ A_1 ?x377 ?x635 (* 3.0 C))) $x23557)))
 (let (($x1000 (not (<= L_4 L_3))))
 (let (($x59 (= L_1 L_0)))
 (let (($x44563 (or $x59 $x1000 $x1420 (<= (+ A_4 (* (- 1.0) A_1) ?x1954) 0.0) $x22684)))
 (let ((?x985 (+ A_4 ?x571 ?x635)))
 (let (($x23494 (= ?x985 ?x23068)))
 (let (($x5386 (= L_4 L_1)))
 (let (($x2193 (not (= L_1 L_3))))
 (let (($x23594 (<= A_3 (+ A_1 ?x635 ?x1318))))
 (let (($x45687 (or $x59 $x89 $x1420 $x22793 (= (+ A_4 ?x571) (+ A_1 ?x377 (* 3.0 C))) $x23594)))
 (let (($x2512 (not (= L_2 L_4))))
 (let (($x23279 (not (<= A_3 (+ A_2 ?x635 C)))))
 (let (($x1444 (not (= L_3 L_4))))
 (let (($x30907 (or (<= (+ A_3 ?x695 L_4 (* (- 1.0) A_4) C) 0.0) $x993 $x2193 $x5386)))
 (let (($x4420 (= L_2 L_0)))
 (let (($x1392 (not (= L_0 L_1))))
 (let (($x46117 (or (<= (+ ?x695 (* (- 1.0) S_2) A_1) 0.0) (<= (+ C (* (- 1.0) S_2) S_0) 0.0))))
 (let (($x2041 (= L_3 L_1)))
 (let (($x22572 (<= A_4 (+ A_3 ?x635 C))))
 (let (($x143 (>= S_5 S_4)))
 (let (($x41 (>= L_0 L0)))
 (let (($x131 (>= S_1 S_0)))
 (let (($x134 (>= S_2 S_1)))
 (let (($x137 (>= S_3 S_2)))
 (let (($x145 (>= A_1 A_0)))
 (let (($x146 (>= A_2 A_1)))
 (let (($x147 (>= A_3 A_2)))
 (let (($x149 (>= A_5 A_4)))
 (and (<= ?x562 S_4) (not (<= (+ A_4 ?x571) S_4)) $x149 $x147 $x146 $x145 $x137 $x134 $x131 $x41 $x143 (or $x89 (<= S_4 ?x985)) (or $x69 (<= S_2 (+ A_2 ?x358 ?x635))) (>= S_0 (+ ?x635 ?x377 A_1 ?x959)) (or $x59 $x993) (<= (+ ?x635 ?x377 A_1 ?x328) (+ A_0 ?x695)) (>= S_1 (+ ?x635 ?x377 A_1 ?x328)) (or $x79 (<= S_3 (+ A_3 ?x561 ?x635))) (>= S_5 ?x985) (or $x59 (<= S_1 (+ A_1 ?x377 ?x635))) (or (not (<= L_3 L_1)) $x2041) (or $x59 (<= S_0 (+ ?x635 ?x377 A_1 ?x328))) (>= S_2 (+ A_1 ?x377 ?x635)) (or $x69 $x411 (not (= L_2 L_3))) (or $x79 (<= S_4 (+ A_3 ?x561 ?x635 C))) (or $x69 $x79 (= L_3 (+ A_3 ?x594 L_2 ?x328))) (or $x22547 $x79) (or $x59 $x69 (= (+ A_2 ?x358) (+ A_1 ?x377 C))) (or $x89 (<= S_5 (+ A_4 ?x571 ?x635 C))) (or $x79 (<= S_5 (+ A_3 ?x561 ?x635 ?x1318))) (<= S_2 ?x1062) (or $x69 (not (<= L_2 L_1))) (>= S_3 (+ A_2 ?x358 ?x635)) (or $x22572 (>= S_5 (+ A_3 ?x561 ?x635 C))) (or $x89 $x1000) (<= S_5 (+ A_5 ?x561)) (or $x1432 (>= S_3 (+ A_1 ?x377 ?x635 C))) (or $x69 (<= S_3 ?x22407)) (<= S_5 (+ A_4 ?x561 C)) (or $x2041 $x22803 (= (+ A_3 ?x561 ?x635) (+ A_2 ?x377 C))) $x46117 (<= (+ L_0 S_1 (* (- 1.0) A_1)) 0.0) (or $x59 (<= S_2 (+ A_1 ?x377 ?x635 C))) (or $x59 $x1420 $x22566) (or $x59 $x79 $x22793 (= (+ A_1 ?x377 ?x1318) ?x562)) (or $x89 (<= S_3 ?x22968)) (or $x3935 (not $x22572)) (or $x1392 $x4420 (<= (+ A_1 ?x695 L_2 ?x594 C) 0.0)) (or $x79 $x89 (= (+ A_4 ?x571) (+ A_3 ?x561 C))) (<= S_5 (+ A_5 ?x571)) $x30907 (or (= (+ A_3 ?x561 ?x635) (+ A_2 ?x695 C)) (not $x23161)) (or $x2193 (<= ?x502 B)) (or $x22566 (not $x23161)) (or $x59 $x2193 $x22822) (or $x79 (<= S_2 ?x23160)) (or $x79 $x1444 $x22684) (>= S_2 ?x22329) (<= S_3 (+ A_3 ?x358)) (or (= L_4 L_2) $x23279 (= ?x985 (+ A_3 ?x358 C))) (or $x69 $x89 $x22826 (= (+ A_4 ?x571) (+ A_2 ?x358 ?x1318))) (or $x69 $x1444 (<= (+ A_4 ?x561 ?x594 L_2 ?x959) 0.0)) (or $x69 (<= S_4 (+ A_2 ?x358 ?x635 ?x1318))) (or (>= S_5 (+ A_4 ?x358)) $x23279 (>= S_5 (+ A_3 ?x358 C))) (or $x2512 (<= (+ ?x328 ?x635 (* (- 1.0) A_3) A_4) 0.0)) (or $x69 (<= S_5 (+ A_2 ?x358 ?x635 (* 3.0 C)))) (or $x89 $x411 $x22803 (= ?x985 ?x23017)) (<= (+ ?x635 ?x358 A_2 ?x959) (+ A_0 ?x695)) (<= S_4 (+ A_3 ?x358 C)) (>= S_3 ?x524) (or $x59 (<= S_3 (+ A_1 ?x377 ?x635 ?x1318))) $x45687 (or $x2193 $x5386 $x22793 $x23494 (not $x23594)) $x44563 (or $x59 (<= S_4 (+ A_1 ?x377 ?x635 (* 3.0 C)))) $x45794 $x30904 (or $x5386 $x22547 $x22803 $x23494) (or $x69 (<= S_1 ?x22329)) (or $x69 (<= S_0 (+ ?x635 ?x358 A_2 ?x959)) $x23710) (or $x411 $x3935 $x22803 $x23739) (or $x1444 $x22684 (<= (+ A_4 ?x594 ?x959) B)) (<= S_5 (+ A_3 ?x358 ?x1318)) (or $x59 (<= S_5 (+ A_1 ?x377 ?x635 (* 4.0 C)))) (<= S_5 (+ A_2 ?x377 (* 3.0 C))) (or (>= S_5 (+ A_4 ?x377)) $x22547 $x22803 $x23557) $x22762 (or $x993 $x1420 $x2041 $x23926) (>= S_1 (+ ?x635 ?x358 A_2 ?x959)) (>= S_0 (+ ?x635 ?x358 A_2 ?x1954)) (or $x3935 $x22826 (>= S_5 (+ A_2 ?x358 ?x635 ?x1318))) (or (not $x23338) (= ?x985 (+ A_3 ?x695 C))) (or $x411 (not $x23338)) (<= (+ ?x328 L_0 S_2 (* (- 1.0) A_1)) 0.0) (or $x22822 (not $x23338)) (or $x89 $x993 $x1420 (<= S_2 ?x524) $x23338) (>= S_2 ?x22141) (or (not $x23038) (= ?x985 (+ A_2 ?x695 ?x1318))) $x44156 (<= ?x21968 (+ A_0 ?x695)) (or $x89 $x4511 $x22566 $x22822 $x23252 $x24347) $x27528 (or $x89 $x1420 $x22566 $x22651 $x22910 $x23338) (>= S_3 ?x23160) (>= S_1 ?x21968) $x44225 (or $x1432 (<= (+ C S_1 (* (- 1.0) S_3)) 0.0)) (or $x1432 $x22910 (<= (+ ?x1318 (* (- 1.0) S_3) S_0) 0.0)) $x43953 (>= S_0 (+ ?x635 ?x571 A_4 (* (- 5.0) C))) (or $x89 $x993 $x22651 $x22701 $x23079 $x23338) (or $x89 $x993 $x1420 (<= S_1 ?x22141) $x23038 $x23338) $x27964 (or $x89 $x22701 $x23038 $x23338 $x24347) $x27370 $x29162 (or $x79 $x993 $x23161 (<= S_1 ?x23277)) (<= (+ ?x959 L_0 (* (- 1.0) A_0) S_2) 0.0) (<= ?x23180 (+ A_0 ?x695)) (<= (+ ?x1954 S_2 (* (- 1.0) S_0)) 0.0) (<= (+ ?x959 (* (- 1.0) S_1) S_2) 0.0) (>= S_0 (+ ?x635 ?x561 A_3 ?x1985)) (>= S_1 ?x23180) (or $x993 $x2041 $x22701 $x23161 $x23260) (or $x79 $x993 $x22910 $x23161 $x23260) (or $x4387 $x22566 $x23909 (not $x23926) $x24347) (>= S_2 ?x23277) (<= S_3 (+ A_2 ?x377 C)) (<= (+ ?x959 (* (- 1.0) S_3) S_4) 0.0) (or $x3935 (<= (+ C (* (- 1.0) S_5) S_3) 0.0)) (<= (+ ?x1954 (* (- 1.0) S_1) S_3) 0.0) (or $x1420 $x22684 $x23557 (<= (+ ?x1318 (* (- 1.0) S_5) S_2) 0.0)) (<= (+ ?x959 S_3 (* (- 1.0) S_2)) 0.0) (or $x3935 $x23135 (<= (+ ?x1318 (* (- 1.0) S_5) S_2) 0.0)) (<= (+ ?x1954 L_0 (* (- 1.0) A_0) S_3) 0.0) (<= (+ (* (- 6.0) C) S_5 (* (- 1.0) S_0)) 0.0) (or $x1420 $x22684 $x23557 $x23739 $x25237) (or $x3935 $x23135 $x23739 $x25237) (<= (+ ?x1954 S_5 (* (- 1.0) S_3)) 0.0) (<= S_4 ?x23017) (<= (+ ?x1954 (* (- 1.0) S_2) S_4) 0.0) (<= (+ (* (- 5.0) C) (* (- 1.0) S_0) S_4) 0.0) (<= (+ ?x1985 (* (- 1.0) S_1) S_4) 0.0) (<= (+ (* (- 5.0) C) (* (- 1.0) S_1) S_5) 0.0) (<= (+ L_0 ?x1954 (* (- 1.0) A_1) S_4) 0.0) (<= (+ ?x1985 S_3 (* (- 1.0) S_0)) 0.0) (<= (+ ?x959 (* (- 1.0) A_1) L_0 S_3) 0.0) (or $x22684 $x22701 $x23557 $x23739 $x24926) (or $x1420 $x22684 $x22910 $x23557 $x23739 $x24926) $x28104 (<= (+ ?x1985 L_0 (* (- 1.0) A_0) S_4) 0.0) (<= (+ (* (- 5.0) C) L_0 (* (- 1.0) A_0) S_5) 0.0) (<= (+ L_0 ?x1985 S_5 (* (- 1.0) A_1)) 0.0) (or $x3935 $x22910 $x23135 $x23739 $x24926) (or $x3935 $x22566 $x23135 $x24347 $x25301) $x45785 $x833 $x922 $x42 (<= (+ ?x1985 S_5 (* (- 1.0) S_2)) 0.0) (<= (+ L_0 (* (- 1.0) A_0) S_0) 0.0) (<= (+ ?x328 L_0 S_1 (* (- 1.0) A_0)) 0.0) (<= (+ ?x959 S_1 (* (- 1.0) S_0)) 0.0)))))))))))))))))))))))))))))))))))))))))))))))))))))))))))))))))))))))))))))))))))))))))))))))))))))))))))))))))
(check-sat)
